% seed = 0

mint = 32;
% maxt = 81;

nActs = 32;
dur = [0,2,1,5,1,3,3,4,1,3,4,5,3,3,1,4,2,3,1,3,2,3,3,4,4,3,3,1,1,4,1,0];

nSkills = 15;
sreq = [| 0,0,0,0,0,0,0,0,0,0,0,0,0,0,0,
	| 0,0,0,0,0,2,0,0,0,0,1,0,0,0,0,
	| 0,0,0,0,0,1,0,0,0,0,0,0,0,0,0,
	| 0,0,0,0,0,1,0,0,0,0,0,0,1,0,0,
	| 0,0,0,0,0,0,0,0,0,0,1,0,1,0,0,
	| 0,0,0,0,0,1,0,0,0,0,0,1,0,0,0,
	| 0,0,0,1,0,1,0,0,0,0,2,0,0,0,0,
	| 0,0,0,0,1,0,0,1,0,0,0,0,0,1,0,
	| 0,0,0,0,1,0,0,0,0,0,0,0,0,1,0,
	| 0,0,0,0,1,1,0,0,0,0,0,0,0,1,1,
	| 0,0,0,0,0,0,0,0,0,0,0,0,1,0,0,
	| 0,0,0,0,0,0,0,0,0,0,0,0,1,2,0,
	| 0,0,0,0,1,0,0,0,0,0,0,0,0,0,0,
	| 1,0,0,0,0,0,0,0,0,0,0,0,0,0,0,
	| 0,0,0,0,0,0,0,0,0,0,0,0,0,1,1,
	| 0,0,0,0,0,0,0,0,0,0,0,1,0,3,0,
	| 0,0,1,0,0,0,0,0,0,0,0,0,0,0,0,
	| 0,0,0,0,1,1,1,0,0,0,0,1,0,0,0,
	| 0,1,0,0,0,0,0,1,0,0,0,0,0,0,0,
	| 0,0,0,0,0,0,0,0,0,0,0,0,0,1,0,
	| 0,0,0,0,0,0,0,0,0,0,0,0,0,1,0,
	| 0,0,0,0,0,0,0,0,0,0,0,0,1,0,0,
	| 0,0,0,0,0,0,0,0,0,0,0,1,0,1,0,
	| 0,0,0,0,0,0,0,0,1,0,1,0,0,0,1,
	| 0,0,0,0,1,0,0,0,0,1,0,0,0,2,0,
	| 0,0,0,0,0,1,0,0,0,0,0,0,0,0,0,
	| 0,0,0,1,0,0,0,0,0,0,0,0,1,1,0,
	| 0,0,0,0,0,1,0,0,0,0,0,0,0,0,0,
	| 0,0,0,0,0,0,0,1,0,0,1,0,2,0,0,
	| 0,0,0,1,1,0,0,0,0,0,0,0,0,0,1,
	| 0,0,0,0,0,0,0,0,0,0,0,0,0,1,0,
	| 0,0,0,0,0,0,0,0,0,0,0,0,0,0,0, |];

% SumOfsreq = 67;

nResources = 12;
mastery = [| true,true,true,false,false,false,false,false,false,true,true,true,true,true,true,
	| false,false,false,false,false,false,false,false,false,false,true,true,false,false,false,
	| false,false,false,false,false,false,false,false,false,false,false,false,false,true,true,
	| false,false,false,false,false,true,false,false,false,false,false,false,false,true,true,
	| false,false,false,false,false,false,false,false,false,false,false,false,false,false,true,
	| false,false,false,false,true,true,false,false,false,false,false,false,false,false,false,
	| false,false,false,false,false,false,false,false,false,false,false,false,false,true,true,
	| false,false,false,false,false,false,false,false,false,false,false,false,true,true,true,
	| false,false,false,true,true,true,false,false,false,false,false,false,false,false,true,
	| false,false,false,false,false,true,true,true,true,false,false,false,true,true,true,
	| false,false,false,false,true,true,false,false,false,false,false,false,false,false,true,
	| false,false,false,false,false,false,false,false,false,true,true,true,false,false,false, |];

nPrecs = 68;
pred = [1,1,1,2,2,2,3,3,4,4,4,5,5,5,6,6,6,7,7,7,8,8,8,9,9,9,10,10,11,11,11,12,12,13,13,13,14,14,14,15,16,16,17,17,17,18,18,18,19,19,19,20,20,21,22,22,22,23,24,24,25,26,26,27,28,29,30,31];
succ = [2,3,4,18,14,7,9,6,13,5,18,10,6,8,20,21,22,17,11,31,12,15,16,25,18,24,14,15,25,15,16,17,22,31,23,16,17,21,22,19,26,19,20,23,24,26,19,31,27,20,21,29,30,30,25,23,24,26,28,29,27,27,29,28,30,32,32,32];

nUnrels = 173;
unpred = [2,2,2,2,2,2,2,2,2,3,3,3,3,3,3,3,3,3,3,3,3,4,4,4,5,5,5,5,5,5,6,6,6,6,6,6,6,6,6,6,6,6,6,6,7,7,7,7,7,7,7,7,8,8,8,8,8,8,8,9,9,9,9,9,9,9,9,9,9,10,10,10,10,10,10,11,11,11,11,11,11,11,11,11,12,12,12,12,12,12,12,12,13,13,13,13,13,13,13,14,14,14,14,14,15,15,15,15,15,15,15,15,15,16,16,16,16,16,16,16,17,17,17,17,17,17,18,18,18,18,19,19,19,19,19,19,20,20,20,20,20,20,20,20,20,21,21,21,21,21,21,21,21,21,22,23,23,23,24,24,24,24,25,25,25,26,27,27,28,28,29,29,30];
unsucc = [3,4,5,6,8,9,10,12,13,4,5,7,8,10,11,12,13,14,15,16,17,7,9,11,7,9,11,13,18,31,7,8,9,10,11,12,13,14,15,16,17,18,19,31,8,9,10,12,13,14,18,22,9,10,11,13,14,18,31,10,11,12,13,14,15,16,17,22,23,11,12,13,16,18,31,12,13,14,17,18,22,23,24,31,13,14,15,16,18,19,21,31,14,15,17,18,22,24,25,15,16,18,19,31,16,17,18,22,23,24,25,26,31,17,18,22,23,24,25,31,18,19,21,22,25,31,22,23,24,25,22,23,24,25,26,31,21,22,23,24,25,26,27,28,31,22,23,24,25,26,27,28,29,31,31,24,25,31,25,26,27,31,26,29,31,31,29,31,29,31,30,31,31];

USEFUL_RES = [{},
	{1,2,4,6,9,10,11,12},
	{4,6,9,10,11},
	{1,4,6,8,9,10,11},
	{1,2,8,10,12},
	{1,2,4,6,9,10,11,12},
	{1,2,4,6,9,10,11,12},
	{1,3,4,6,7,8,9,10,11},
	{1,3,4,6,7,8,9,10,11},
	{1,3,4,5,6,7,8,9,10,11},
	{1,8,10},
	{1,3,4,7,8,10},
	{6,9,11},
	{1},
	{1,3,4,5,7,8,9,10,11},
	{1,2,3,4,7,8,10,12},
	{1},
	{1,2,4,6,9,10,11,12},
	{1,10},
	{1,3,4,7,8,10},
	{1,3,4,7,8,10},
	{1,8,10},
	{1,2,3,4,7,8,10,12},
	{1,2,3,4,5,7,8,9,10,11,12},
	{1,3,4,6,7,8,9,10,11,12},
	{4,6,9,10,11},
	{1,3,4,7,8,9,10},
	{4,6,9,10,11},
	{1,2,8,10,12},
	{1,3,4,5,6,7,8,9,10,11},
	{1,3,4,7,8,10},
	{}];

POTENTIAL_ACT = [{2,4,5,6,7,8,9,10,11,12,14,15,16,17,18,19,20,21,22,23,24,25,27,29,30,31},
	{2,5,6,7,16,18,23,24,29},
	{8,9,10,12,15,16,20,21,23,24,25,27,30,31},
	{2,3,4,6,7,8,9,10,12,15,16,18,20,21,23,24,25,26,27,28,30,31},
	{10,15,24,30},
	{2,3,4,6,7,8,9,10,13,18,25,26,28,30},
	{8,9,10,12,15,16,20,21,23,24,25,27,30,31},
	{4,5,8,9,10,11,12,15,16,20,21,22,23,24,25,27,29,30,31},
	{2,3,4,6,7,8,9,10,13,15,18,24,25,26,27,28,30},
	{2,3,4,5,6,7,8,9,10,11,12,15,16,18,19,20,21,22,23,24,25,26,27,28,29,30,31},
	{2,3,4,6,7,8,9,10,13,15,18,24,25,26,28,30},
	{2,5,6,7,16,18,23,24,25,29}];
